(set-logic ALL)
(declare-fun seed0_T_1 () Bool)
(declare-fun seed0_T_2 () Bool)
(declare-fun seed0_T_3 () Bool)
(declare-fun seed0_T_4 () Bool)
(declare-fun seed0_var_0xINPUT_132755 () String)
(assert (and (or (= seed0_T_1 (= "-" seed0_var_0xINPUT_132755)) (=> (str.< (str.++ seed0_var_0xINPUT_132755 "mL") (str.++ seed0_var_0xINPUT_132755 "FjKZ5QAnE98L2Mw")) (str.contains (str.++ seed0_var_0xINPUT_132755 "ejXCuZEoySr") (str.++ seed0_var_0xINPUT_132755 "fw8")))) (or (= seed0_T_2 (not seed0_T_1)) (str.<= (str.++ seed0_var_0xINPUT_132755 "") (str.++ seed0_var_0xINPUT_132755 "vIsLk0e6aSNf7"))) (or seed0_T_2 (=> (str.<= (str.++ seed0_var_0xINPUT_132755 "") (str.++ seed0_var_0xINPUT_132755 "I6pZKUROTFd")) (str.< (str.++ seed0_var_0xINPUT_132755 "XB4gz") (str.++ seed0_var_0xINPUT_132755 "sV0O5")))) (or (= seed0_T_3 (= "" seed0_var_0xINPUT_132755)) (xor (str.contains (str.++ seed0_var_0xINPUT_132755 "UA4FftN7ie20P") (str.++ seed0_var_0xINPUT_132755 "FdhRM5o9w")) (str.<= (str.++ seed0_var_0xINPUT_132755 "cDWdyxSZrq0tg9sf") (str.++ seed0_var_0xINPUT_132755 "X7Cft2KWnr")))) (or (= seed0_T_4 (not seed0_T_3)) (and (str.suffixof (str.++ seed0_var_0xINPUT_132755 "UReHQykTJY0war") (str.++ seed0_var_0xINPUT_132755 "ZIN6PSMl")) (str.contains (str.++ seed0_var_0xINPUT_132755 "") (str.++ seed0_var_0xINPUT_132755 "BzYmePJHIh")))) (or seed0_T_4 (str.suffixof (str.++ seed0_var_0xINPUT_132755 "2AuXNjQr") (str.++ seed0_var_0xINPUT_132755 "5KE6AU")))))
(check-sat)
(exit)